NAME : simpleTest
COMMENT : Drilling problem (Reinelt)
TYPE : TSP
DIMENSION : 5
EDGE_WEIGHT_TYPE : EUC_2D
NODE_COORD_SECTION
1 0.00000e+03 0.00000e+00
2 1.00000e+03 0.00000e+00
3 2.00000e+03 0.00000e+00
4 3.00000e+03 0.00000e+00
5 4.00000e+03 0.00000e+00
6 5.00000e+03 0.00000e+00
7 6.00000e+03 0.00000e+00
8 7.00000e+03 0.00000e+00
9 8.00000e+03 0.00000e+00
10 9.00000e+03 0.00000e+00
EOF
